units real
boundary p p p
atom_style full
read_data lmp.data

bond_style harmonic
angle_style charmm
dihedral_style charmm
improper_style harmonic

kspace_style pppm 1e-4
pair_style hybrid lj/cut/coul/long 10.0

# 1  C
# 2  Fe
# 3  H
# 4  N
# 5  O
# 6  S

# Pair coefficients (unchanged)
pair_coeff 3 3 lj/cut/coul/long 0.5 2.846
pair_coeff 5 5 lj/cut/coul/long 0.2  2.85
pair_coeff 4 4 lj/cut/coul/long 0.17 3.250
pair_coeff 1 1 lj/cut/coul/long 0.12 3.30
pair_coeff 6 6 lj/cut/coul/long 0.27 3.59
pair_coeff 2 2 lj/cut/coul/long 0.013 2.32
pair_modify mix arithmetic
neigh_modify delay 1 every 1 check yes one 2000
bond_coeff 1 0 0

# Create results folder
variable results string "simulation_results_6"
shell rmdir ${results}
shell mkdir ${results}
shell cd ${results}

# Define ligand region and group
#region ligand_region block -0.5 0.5 41 43.5 -14.7 -12.9
group ligand_group id 3281
set group ligand_group charge -0.5

# Set Fe charge
set type 2 charge 15

# Define group "others", to compute potential energy:
group others subtract all ligand_group

#potential energy
compute pe_ligand ligand_group group/group others kspace yes
#kinetic energy
compute ke_ligand ligand_group ke

# Output
dump 1 all custom 100 dmp.*.txt id type x y z mass
fix ave_ke all ave/time 100 1 100 c_ke_ligand file ke_data.txt
fix ave_pe all ave/time 100 1 100 c_pe_ligand file pe_data.txt

thermo_style custom step temp ke pe etotal c_ke_ligand c_pe_ligand
thermo 100

# Simulation
minimize 0.0 0.0 1000 10000
velocity all create 300.0 1234567 mom yes rot yes dist gaussian
fix 1 all nve
timestep 0.1
run 50000
